p edge 36 180
e 1 2
e 1 4
e 1 10
e 1 17
e 1 32
e 2 10
e 2 10
e 2 18
e 2 34
e 2 35
e 3 12
e 3 14
e 3 15
e 3 29
e 3 33
e 4 12
e 4 16
e 4 21
e 4 30
e 4 31
e 5 9
e 5 9
e 5 11
e 5 20
e 5 22
e 6 5
e 6 10
e 6 15
e 6 15
e 6 15
e 7 1
e 7 10
e 7 14
e 7 33
e 7 34
e 8 16
e 8 18
e 8 21
e 8 21
e 8 35
e 9 1
e 9 14
e 9 14
e 9 22
e 9 30
e 10 3
e 10 16
e 10 19
e 10 28
e 10 34
e 11 3
e 11 6
e 11 15
e 11 16
e 11 33
e 12 4
e 12 8
e 12 25
e 12 25
e 12 27
e 13 12
e 13 16
e 13 19
e 13 27
e 13 33
e 14 9
e 14 20
e 14 25
e 14 25
e 14 32
e 15 1
e 15 17
e 15 20
e 15 29
e 15 35
e 16 12
e 16 19
e 16 20
e 16 28
e 16 31
e 17 3
e 17 11
e 17 11
e 17 26
e 17 36
e 18 3
e 18 6
e 18 22
e 18 34
e 18 35
e 19 1
e 19 17
e 19 21
e 19 23
e 19 26
e 20 2
e 20 7
e 20 21
e 20 27
e 20 34
e 21 5
e 21 6
e 21 24
e 21 29
e 21 33
e 22 14
e 22 24
e 22 28
e 22 34
e 22 34
e 23 10
e 23 11
e 23 12
e 23 12
e 23 22
e 24 4
e 24 6
e 24 17
e 24 31
e 24 32
e 25 6
e 25 7
e 25 22
e 25 23
e 25 36
e 26 3
e 26 12
e 26 21
e 26 24
e 26 29
e 27 2
e 27 4
e 27 4
e 27 18
e 27 21
e 28 1
e 28 5
e 28 12
e 28 17
e 28 19
e 29 5
e 29 12
e 29 12
e 29 22
e 29 25
e 30 2
e 30 3
e 30 12
e 30 15
e 30 25
e 31 12
e 31 12
e 31 14
e 31 16
e 31 30
e 32 2
e 32 9
e 32 17
e 32 28
e 32 33
e 33 2
e 33 5
e 33 15
e 33 27
e 33 27
e 34 5
e 34 8
e 34 24
e 34 25
e 34 35
e 35 9
e 35 9
e 35 16
e 35 28
e 35 36
e 36 5
e 36 13
e 36 14
e 36 17
e 36 28
